objective value:                                  -13
t_n_10                                              1 	(obj:-1)
t_n_164                                             1 	(obj:-1)
t_n_540                                             1 	(obj:-1)
t_n_595                                             1 	(obj:-1)
t_n_631                                             1 	(obj:-1)
t_n_741                                             1 	(obj:-1)
t_n_768                                             1 	(obj:-1)
t_n_777                                             1 	(obj:-1)
t_n_846                                             1 	(obj:-1)
t_n_874                                             1 	(obj:-1)
t_n_884                                             1 	(obj:-1)
t_n_887                                             1 	(obj:-1)
t_n_925                                             1 	(obj:-1)
